33
26
0 26 27 29
1 26 27 28 29 30 32
2 26 32
3 26 28 29 30 31 32
4 26 27
5 26 28 30 32
6 27 29 32
7 26 27 28 32
8 26 27 28
9 26
10 26 27 28 29 30
11 26 30 31 32
12 26 28 29
13 28 32
14 26 27 28 32
15 26 27 28
16 28 29 30 32
17 28 29 31 32
18
19
20 27 28
21
22
23
24 28
25 29
